91 300 10 126 60 97 96 70 118 162 186 154 61 24 86 21 26 157 22 84 30 130 1 112 50 138 68 21 181 171 142 139 162 103 65 21 199 160 90 116 73 27 21 133 51 58 105 28 14 127 111 44 8 63 107 58 1 175 30 133 145 123 71 106 25 135 78 23 46 119 91 118 146 111 3 148 169 107 175 134 185 37 177 193 99 36 2 51 10 31 135 106 154 